\ LP format - for model browsing. Use MPS format to capture full model detail.
Minimize
  8.4 RUp(g1,s1,t1) - 7.6 RDn(g1,s1,t1) + 163.8 RUpSC(g1,s1,t1)
   - 148.2 RDnSC(g1,s1,t1) + 5000 Lshed(s1,t1) + 8.4 RUp(g1,s1,t2)
   - 7.6 RDn(g1,s1,t2) + 163.8 RUpSC(g1,s1,t2) - 148.2 RDnSC(g1,s1,t2)
   + 5000 Lshed(s1,t2) + 8.4 RUp(g1,s1,t3) - 7.6 RDn(g1,s1,t3)
   + 163.8 RUpSC(g1,s1,t3) - 148.2 RDnSC(g1,s1,t3) + 5000 Lshed(s1,t3)
   + 8.4 RUp(g1,s1,t4) - 7.6 RDn(g1,s1,t4) + 163.8 RUpSC(g1,s1,t4)
   - 148.2 RDnSC(g1,s1,t4) + 5000 Lshed(s1,t4) + 8.4 RUp(g1,s1,t5)
   - 7.6 RDn(g1,s1,t5) + 163.8 RUpSC(g1,s1,t5) - 148.2 RDnSC(g1,s1,t5)
   + 5000 Lshed(s1,t5) + 8.4 RUp(g1,s1,t6) - 7.6 RDn(g1,s1,t6)
   + 163.8 RUpSC(g1,s1,t6) - 148.2 RDnSC(g1,s1,t6) + 5000 Lshed(s1,t6)
   + 8.4 RUp(g1,s1,t7) - 7.6 RDn(g1,s1,t7) + 163.8 RUpSC(g1,s1,t7)
   - 148.2 RDnSC(g1,s1,t7) + 5000 Lshed(s1,t7) + 8.4 RUp(g1,s1,t8)
   - 7.6 RDn(g1,s1,t8) + 163.8 RUpSC(g1,s1,t8) - 148.2 RDnSC(g1,s1,t8)
   + 5000 Lshed(s1,t8) + 8.4 RUp(g1,s1,t9) - 7.6 RDn(g1,s1,t9)
   + 163.8 RUpSC(g1,s1,t9) - 148.2 RDnSC(g1,s1,t9) + 5000 Lshed(s1,t9)
   + 8.4 RUp(g1,s1,t10) - 7.6 RDn(g1,s1,t10) + 163.8 RUpSC(g1,s1,t10)
   - 148.2 RDnSC(g1,s1,t10) + 5000 Lshed(s1,t10) + 8.4 RUp(g1,s1,t11)
   - 7.6 RDn(g1,s1,t11) + 163.8 RUpSC(g1,s1,t11) - 148.2 RDnSC(g1,s1,t11)
   + 5000 Lshed(s1,t11) + 8.4 RUp(g1,s1,t12) - 7.6 RDn(g1,s1,t12)
   + 163.8 RUpSC(g1,s1,t12) - 148.2 RDnSC(g1,s1,t12) + 5000 Lshed(s1,t12)
   + 8.4 RUp(g1,s1,t13) - 7.6 RDn(g1,s1,t13) + 163.8 RUpSC(g1,s1,t13)
   - 148.2 RDnSC(g1,s1,t13) + 5000 Lshed(s1,t13) + 8.4 RUp(g1,s1,t14)
   - 7.6 RDn(g1,s1,t14) + 163.8 RUpSC(g1,s1,t14) - 148.2 RDnSC(g1,s1,t14)
   + 5000 Lshed(s1,t14) + 8.4 RUp(g1,s1,t15) - 7.6 RDn(g1,s1,t15)
   + 163.8 RUpSC(g1,s1,t15) - 148.2 RDnSC(g1,s1,t15) + 5000 Lshed(s1,t15)
   + 8.4 RUp(g1,s1,t16) - 7.6 RDn(g1,s1,t16) + 163.8 RUpSC(g1,s1,t16)
   - 148.2 RDnSC(g1,s1,t16) + 5000 Lshed(s1,t16) + 8.4 RUp(g1,s1,t17)
   - 7.6 RDn(g1,s1,t17) + 163.8 RUpSC(g1,s1,t17) - 148.2 RDnSC(g1,s1,t17)
   + 5000 Lshed(s1,t17) + 8.4 RUp(g1,s1,t18) - 7.6 RDn(g1,s1,t18)
   + 163.8 RUpSC(g1,s1,t18) - 148.2 RDnSC(g1,s1,t18) + 5000 Lshed(s1,t18)
   + 8.4 RUp(g1,s1,t19) - 7.6 RDn(g1,s1,t19) + 163.8 RUpSC(g1,s1,t19)
   - 148.2 RDnSC(g1,s1,t19) + 5000 Lshed(s1,t19) + 8.4 RUp(g1,s1,t20)
   - 7.6 RDn(g1,s1,t20) + 163.8 RUpSC(g1,s1,t20) - 148.2 RDnSC(g1,s1,t20)
   + 5000 Lshed(s1,t20) + 8.4 RUp(g1,s1,t21) - 7.6 RDn(g1,s1,t21)
   + 163.8 RUpSC(g1,s1,t21) - 148.2 RDnSC(g1,s1,t21) + 5000 Lshed(s1,t21)
   + 8.4 RUp(g1,s1,t22) - 7.6 RDn(g1,s1,t22) + 163.8 RUpSC(g1,s1,t22)
   - 148.2 RDnSC(g1,s1,t22) + 5000 Lshed(s1,t22) + 8.4 RUp(g1,s1,t23)
   - 7.6 RDn(g1,s1,t23) + 163.8 RUpSC(g1,s1,t23) - 148.2 RDnSC(g1,s1,t23)
   + 5000 Lshed(s1,t23) + 8.4 RUp(g1,s1,t24) - 7.6 RDn(g1,s1,t24)
   + 163.8 RUpSC(g1,s1,t24) - 148.2 RDnSC(g1,s1,t24) + 5000 Lshed(s1,t24)
   + 8.4 RUp(g1,s2,t1) - 7.6 RDn(g1,s2,t1) + 163.8 RUpSC(g1,s2,t1)
   - 148.2 RDnSC(g1,s2,t1) + 5000 Lshed(s2,t1) + 8.4 RUp(g1,s2,t2)
   - 7.6 RDn(g1,s2,t2) + 163.8 RUpSC(g1,s2,t2) - 148.2 RDnSC(g1,s2,t2)
   + 5000 Lshed(s2,t2) + 8.4 RUp(g1,s2,t3) - 7.6 RDn(g1,s2,t3)
   + 163.8 RUpSC(g1,s2,t3) - 148.2 RDnSC(g1,s2,t3) + 5000 Lshed(s2,t3)
   + 8.4 RUp(g1,s2,t4) - 7.6 RDn(g1,s2,t4) + 163.8 RUpSC(g1,s2,t4)
   - 148.2 RDnSC(g1,s2,t4) + 5000 Lshed(s2,t4) + 8.4 RUp(g1,s2,t5)
   - 7.6 RDn(g1,s2,t5) + 163.8 RUpSC(g1,s2,t5) - 148.2 RDnSC(g1,s2,t5)
   + 5000 Lshed(s2,t5) + 8.4 RUp(g1,s2,t6) - 7.6 RDn(g1,s2,t6)
   + 163.8 RUpSC(g1,s2,t6) - 148.2 RDnSC(g1,s2,t6) + 5000 Lshed(s2,t6)
   + 8.4 RUp(g1,s2,t7) - 7.6 RDn(g1,s2,t7) + 163.8 RUpSC(g1,s2,t7)
   - 148.2 RDnSC(g1,s2,t7) + 5000 Lshed(s2,t7) + 8.4 RUp(g1,s2,t8)
   - 7.6 RDn(g1,s2,t8) + 163.8 RUpSC(g1,s2,t8) - 148.2 RDnSC(g1,s2,t8)
   + 5000 Lshed(s2,t8) + 8.4 RUp(g1,s2,t9) - 7.6 RDn(g1,s2,t9)
   + 163.8 RUpSC(g1,s2,t9) - 148.2 RDnSC(g1,s2,t9) + 5000 Lshed(s2,t9)
   + 8.4 RUp(g1,s2,t10) - 7.6 RDn(g1,s2,t10) + 163.8 RUpSC(g1,s2,t10)
   - 148.2 RDnSC(g1,s2,t10) + 5000 Lshed(s2,t10) + 8.4 RUp(g1,s2,t11)
   - 7.6 RDn(g1,s2,t11) + 163.8 RUpSC(g1,s2,t11) - 148.2 RDnSC(g1,s2,t11)
   + 5000 Lshed(s2,t11) + 8.4 RUp(g1,s2,t12) - 7.6 RDn(g1,s2,t12)
   + 163.8 RUpSC(g1,s2,t12) - 148.2 RDnSC(g1,s2,t12) + 5000 Lshed(s2,t12)
   + 8.4 RUp(g1,s2,t13) - 7.6 RDn(g1,s2,t13) + 163.8 RUpSC(g1,s2,t13)
   - 148.2 RDnSC(g1,s2,t13) + 5000 Lshed(s2,t13) + 8.4 RUp(g1,s2,t14)
   - 7.6 RDn(g1,s2,t14) + 163.8 RUpSC(g1,s2,t14) - 148.2 RDnSC(g1,s2,t14)
   + 5000 Lshed(s2,t14) + 8.4 RUp(g1,s2,t15) - 7.6 RDn(g1,s2,t15)
   + 163.8 RUpSC(g1,s2,t15) - 148.2 RDnSC(g1,s2,t15) + 5000 Lshed(s2,t15)
   + 8.4 RUp(g1,s2,t16) - 7.6 RDn(g1,s2,t16) + 163.8 RUpSC(g1,s2,t16)
   - 148.2 RDnSC(g1,s2,t16) + 5000 Lshed(s2,t16) + 8.4 RUp(g1,s2,t17)
   - 7.6 RDn(g1,s2,t17) + 163.8 RUpSC(g1,s2,t17) - 148.2 RDnSC(g1,s2,t17)
   + 5000 Lshed(s2,t17) + 8.4 RUp(g1,s2,t18) - 7.6 RDn(g1,s2,t18)
   + 163.8 RUpSC(g1,s2,t18) - 148.2 RDnSC(g1,s2,t18) + 5000 Lshed(s2,t18)
   + 8.4 RUp(g1,s2,t19) - 7.6 RDn(g1,s2,t19) + 163.8 RUpSC(g1,s2,t19)
   - 148.2 RDnSC(g1,s2,t19) + 5000 Lshed(s2,t19) + 8.4 RUp(g1,s2,t20)
   - 7.6 RDn(g1,s2,t20) + 163.8 RUpSC(g1,s2,t20) - 148.2 RDnSC(g1,s2,t20)
   + 5000 Lshed(s2,t20) + 8.4 RUp(g1,s2,t21) - 7.6 RDn(g1,s2,t21)
   + 163.8 RUpSC(g1,s2,t21) - 148.2 RDnSC(g1,s2,t21) + 5000 Lshed(s2,t21)
   + 8.4 RUp(g1,s2,t22) - 7.6 RDn(g1,s2,t22) + 163.8 RUpSC(g1,s2,t22)
   - 148.2 RDnSC(g1,s2,t22) + 5000 Lshed(s2,t22) + 8.4 RUp(g1,s2,t23)
   - 7.6 RDn(g1,s2,t23) + 163.8 RUpSC(g1,s2,t23) - 148.2 RDnSC(g1,s2,t23)
   + 5000 Lshed(s2,t23) + 8.4 RUp(g1,s2,t24) - 7.6 RDn(g1,s2,t24)
   + 163.8 RUpSC(g1,s2,t24) - 148.2 RDnSC(g1,s2,t24) + 5000 Lshed(s2,t24)
Subject To
 PowerBalance_RT(s1,t1): RUp(g1,s1,t1) - RDn(g1,s1,t1) + RUpSC(g1,s1,t1)
   - RDnSC(g1,s1,t1) - Wspill(w1,s1,t1) + Lshed(s1,t1)
   = -4.840380989999996
 PowerBalance_RT(s1,t2): RUp(g1,s1,t2) - RDn(g1,s1,t2) + RUpSC(g1,s1,t2)
   - RDnSC(g1,s1,t2) - Wspill(w1,s1,t2) + Lshed(s1,t2)
   = -4.952112629999999
 PowerBalance_RT(s1,t3): RUp(g1,s1,t3) - RDn(g1,s1,t3) + RUpSC(g1,s1,t3)
   - RDnSC(g1,s1,t3) - Wspill(w1,s1,t3) + Lshed(s1,t3)
   = -5.174671079999996
 PowerBalance_RT(s1,t4): RUp(g1,s1,t4) - RDn(g1,s1,t4) + RUpSC(g1,s1,t4)
   - RDnSC(g1,s1,t4) - Wspill(w1,s1,t4) + Lshed(s1,t4)
   = -4.943874794999999
 PowerBalance_RT(s1,t5): RUp(g1,s1,t5) - RDn(g1,s1,t5) + RUpSC(g1,s1,t5)
   - RDnSC(g1,s1,t5) - Wspill(w1,s1,t5) + Lshed(s1,t5)
   = -5.018777429999997
 PowerBalance_RT(s1,t6): RUp(g1,s1,t6) - RDn(g1,s1,t6) + RUpSC(g1,s1,t6)
   - RDnSC(g1,s1,t6) - Wspill(w1,s1,t6) + Lshed(s1,t6)
   = -4.542229754999996
 PowerBalance_RT(s1,t7): RUp(g1,s1,t7) - RDn(g1,s1,t7) + RUpSC(g1,s1,t7)
   - RDnSC(g1,s1,t7) - Wspill(w1,s1,t7) + Lshed(s1,t7)
   = -4.148664584999995
 PowerBalance_RT(s1,t8): RUp(g1,s1,t8) - RDn(g1,s1,t8) + RUpSC(g1,s1,t8)
   - RDnSC(g1,s1,t8) - Wspill(w1,s1,t8) + Lshed(s1,t8)
   = -3.336702359999997
 PowerBalance_RT(s1,t9): RUp(g1,s1,t9) - RDn(g1,s1,t9) + RUpSC(g1,s1,t9)
   - RDnSC(g1,s1,t9) - Wspill(w1,s1,t9) + Lshed(s1,t9)
   = -2.619095909999999
 PowerBalance_RT(s1,t10): RUp(g1,s1,t10) - RDn(g1,s1,t10)
   + RUpSC(g1,s1,t10) - RDnSC(g1,s1,t10) - Wspill(w1,s1,t10)
   + Lshed(s1,t10) = -1.937298075
 PowerBalance_RT(s1,t11): RUp(g1,s1,t11) - RDn(g1,s1,t11)
   + RUpSC(g1,s1,t11) - RDnSC(g1,s1,t11) - Wspill(w1,s1,t11)
   + Lshed(s1,t11) = -1.491039179999999
 PowerBalance_RT(s1,t12): RUp(g1,s1,t12) - RDn(g1,s1,t12)
   + RUpSC(g1,s1,t12) - RDnSC(g1,s1,t12) - Wspill(w1,s1,t12)
   + Lshed(s1,t12) = -1.33254837
 PowerBalance_RT(s1,t13): RUp(g1,s1,t13) - RDn(g1,s1,t13)
   + RUpSC(g1,s1,t13) - RDnSC(g1,s1,t13) - Wspill(w1,s1,t13)
   + Lshed(s1,t13) = -1.365467579999999
 PowerBalance_RT(s1,t14): RUp(g1,s1,t14) - RDn(g1,s1,t14)
   + RUpSC(g1,s1,t14) - RDnSC(g1,s1,t14) - Wspill(w1,s1,t14)
   + Lshed(s1,t14) = -1.751168954999999
 PowerBalance_RT(s1,t15): RUp(g1,s1,t15) - RDn(g1,s1,t15)
   + RUpSC(g1,s1,t15) - RDnSC(g1,s1,t15) - Wspill(w1,s1,t15)
   + Lshed(s1,t15) = -1.990514025
 PowerBalance_RT(s1,t16): RUp(g1,s1,t16) - RDn(g1,s1,t16)
   + RUpSC(g1,s1,t16) - RDnSC(g1,s1,t16) - Wspill(w1,s1,t16)
   + Lshed(s1,t16) = -1.929347819999999
 PowerBalance_RT(s1,t17): RUp(g1,s1,t17) - RDn(g1,s1,t17)
   + RUpSC(g1,s1,t17) - RDnSC(g1,s1,t17) - Wspill(w1,s1,t17)
   + Lshed(s1,t17) = -1.618164569999999
 PowerBalance_RT(s1,t18): RUp(g1,s1,t18) - RDn(g1,s1,t18)
   + RUpSC(g1,s1,t18) - RDnSC(g1,s1,t18) - Wspill(w1,s1,t18)
   + Lshed(s1,t18) = -1.517903084999999
 PowerBalance_RT(s1,t19): RUp(g1,s1,t19) - RDn(g1,s1,t19)
   + RUpSC(g1,s1,t19) - RDnSC(g1,s1,t19) - Wspill(w1,s1,t19)
   + Lshed(s1,t19) = -1.444128254999998
 PowerBalance_RT(s1,t20): RUp(g1,s1,t20) - RDn(g1,s1,t20)
   + RUpSC(g1,s1,t20) - RDnSC(g1,s1,t20) - Wspill(w1,s1,t20)
   + Lshed(s1,t20) = -1.358800499999999
 PowerBalance_RT(s1,t21): RUp(g1,s1,t21) - RDn(g1,s1,t21)
   + RUpSC(g1,s1,t21) - RDnSC(g1,s1,t21) - Wspill(w1,s1,t21)
   + Lshed(s1,t21) = -1.212598889999999
 PowerBalance_RT(s1,t22): RUp(g1,s1,t22) - RDn(g1,s1,t22)
   + RUpSC(g1,s1,t22) - RDnSC(g1,s1,t22) - Wspill(w1,s1,t22)
   + Lshed(s1,t22) = -1.123581974999999
 PowerBalance_RT(s1,t23): RUp(g1,s1,t23) - RDn(g1,s1,t23)
   + RUpSC(g1,s1,t23) - RDnSC(g1,s1,t23) - Wspill(w1,s1,t23)
   + Lshed(s1,t23) = -0.9708669599999991
 PowerBalance_RT(s1,t24): RUp(g1,s1,t24) - RDn(g1,s1,t24)
   + RUpSC(g1,s1,t24) - RDnSC(g1,s1,t24) - Wspill(w1,s1,t24)
   + Lshed(s1,t24) = -0.6269377949999992
 PowerBalance_RT(s2,t1): RUp(g1,s2,t1) - RDn(g1,s2,t1) + RUpSC(g1,s2,t1)
   - RDnSC(g1,s2,t1) - Wspill(w1,s2,t1) + Lshed(s2,t1) = 4.840380990000003
 PowerBalance_RT(s2,t2): RUp(g1,s2,t2) - RDn(g1,s2,t2) + RUpSC(g1,s2,t2)
   - RDnSC(g1,s2,t2) - Wspill(w1,s2,t2) + Lshed(s2,t2) = 4.952112630000002
 PowerBalance_RT(s2,t3): RUp(g1,s2,t3) - RDn(g1,s2,t3) + RUpSC(g1,s2,t3)
   - RDnSC(g1,s2,t3) - Wspill(w1,s2,t3) + Lshed(s2,t3) = 5.174671080000005
 PowerBalance_RT(s2,t4): RUp(g1,s2,t4) - RDn(g1,s2,t4) + RUpSC(g1,s2,t4)
   - RDnSC(g1,s2,t4) - Wspill(w1,s2,t4) + Lshed(s2,t4) = 4.943874795000003
 PowerBalance_RT(s2,t5): RUp(g1,s2,t5) - RDn(g1,s2,t5) + RUpSC(g1,s2,t5)
   - RDnSC(g1,s2,t5) - Wspill(w1,s2,t5) + Lshed(s2,t5) = 5.018777430000002
 PowerBalance_RT(s2,t6): RUp(g1,s2,t6) - RDn(g1,s2,t6) + RUpSC(g1,s2,t6)
   - RDnSC(g1,s2,t6) - Wspill(w1,s2,t6) + Lshed(s2,t6) = 4.542229755000005
 PowerBalance_RT(s2,t7): RUp(g1,s2,t7) - RDn(g1,s2,t7) + RUpSC(g1,s2,t7)
   - RDnSC(g1,s2,t7) - Wspill(w1,s2,t7) + Lshed(s2,t7) = 4.148664585000004
 PowerBalance_RT(s2,t8): RUp(g1,s2,t8) - RDn(g1,s2,t8) + RUpSC(g1,s2,t8)
   - RDnSC(g1,s2,t8) - Wspill(w1,s2,t8) + Lshed(s2,t8) = 3.336702360000003
 PowerBalance_RT(s2,t9): RUp(g1,s2,t9) - RDn(g1,s2,t9) + RUpSC(g1,s2,t9)
   - RDnSC(g1,s2,t9) - Wspill(w1,s2,t9) + Lshed(s2,t9) = 2.619095910000001
 PowerBalance_RT(s2,t10): RUp(g1,s2,t10) - RDn(g1,s2,t10)
   + RUpSC(g1,s2,t10) - RDnSC(g1,s2,t10) - Wspill(w1,s2,t10)
   + Lshed(s2,t10) = 1.937298075000001
 PowerBalance_RT(s2,t11): RUp(g1,s2,t11) - RDn(g1,s2,t11)
   + RUpSC(g1,s2,t11) - RDnSC(g1,s2,t11) - Wspill(w1,s2,t11)
   + Lshed(s2,t11) = 1.491039180000001
 PowerBalance_RT(s2,t12): RUp(g1,s2,t12) - RDn(g1,s2,t12)
   + RUpSC(g1,s2,t12) - RDnSC(g1,s2,t12) - Wspill(w1,s2,t12)
   + Lshed(s2,t12) = 1.33254837
 PowerBalance_RT(s2,t13): RUp(g1,s2,t13) - RDn(g1,s2,t13)
   + RUpSC(g1,s2,t13) - RDnSC(g1,s2,t13) - Wspill(w1,s2,t13)
   + Lshed(s2,t13) = 1.365467580000001
 PowerBalance_RT(s2,t14): RUp(g1,s2,t14) - RDn(g1,s2,t14)
   + RUpSC(g1,s2,t14) - RDnSC(g1,s2,t14) - Wspill(w1,s2,t14)
   + Lshed(s2,t14) = 1.751168955000001
 PowerBalance_RT(s2,t15): RUp(g1,s2,t15) - RDn(g1,s2,t15)
   + RUpSC(g1,s2,t15) - RDnSC(g1,s2,t15) - Wspill(w1,s2,t15)
   + Lshed(s2,t15) = 1.990514025
 PowerBalance_RT(s2,t16): RUp(g1,s2,t16) - RDn(g1,s2,t16)
   + RUpSC(g1,s2,t16) - RDnSC(g1,s2,t16) - Wspill(w1,s2,t16)
   + Lshed(s2,t16) = 1.929347820000001
 PowerBalance_RT(s2,t17): RUp(g1,s2,t17) - RDn(g1,s2,t17)
   + RUpSC(g1,s2,t17) - RDnSC(g1,s2,t17) - Wspill(w1,s2,t17)
   + Lshed(s2,t17) = 1.618164570000001
 PowerBalance_RT(s2,t18): RUp(g1,s2,t18) - RDn(g1,s2,t18)
   + RUpSC(g1,s2,t18) - RDnSC(g1,s2,t18) - Wspill(w1,s2,t18)
   + Lshed(s2,t18) = 1.517903085000001
 PowerBalance_RT(s2,t19): RUp(g1,s2,t19) - RDn(g1,s2,t19)
   + RUpSC(g1,s2,t19) - RDnSC(g1,s2,t19) - Wspill(w1,s2,t19)
   + Lshed(s2,t19) = 1.444128255000002
 PowerBalance_RT(s2,t20): RUp(g1,s2,t20) - RDn(g1,s2,t20)
   + RUpSC(g1,s2,t20) - RDnSC(g1,s2,t20) - Wspill(w1,s2,t20)
   + Lshed(s2,t20) = 1.358800500000001
 PowerBalance_RT(s2,t21): RUp(g1,s2,t21) - RDn(g1,s2,t21)
   + RUpSC(g1,s2,t21) - RDnSC(g1,s2,t21) - Wspill(w1,s2,t21)
   + Lshed(s2,t21) = 1.212598890000001
 PowerBalance_RT(s2,t22): RUp(g1,s2,t22) - RDn(g1,s2,t22)
   + RUpSC(g1,s2,t22) - RDnSC(g1,s2,t22) - Wspill(w1,s2,t22)
   + Lshed(s2,t22) = 1.123581975000001
 PowerBalance_RT(s2,t23): RUp(g1,s2,t23) - RDn(g1,s2,t23)
   + RUpSC(g1,s2,t23) - RDnSC(g1,s2,t23) - Wspill(w1,s2,t23)
   + Lshed(s2,t23) = 0.9708669600000006
 PowerBalance_RT(s2,t24): RUp(g1,s2,t24) - RDn(g1,s2,t24)
   + RUpSC(g1,s2,t24) - RDnSC(g1,s2,t24) - Wspill(w1,s2,t24)
   + Lshed(s2,t24) = 0.6269377950000006
 RegUp_max_RT(g1,s1,t1): RUp(g1,s1,t1) <= 116.521143
 RegDown_max_RT(g1,s1,t1): RDn(g1,s1,t1) <= 35.478857
 RegUp_max_RT(g1,s1,t2): RUp(g1,s1,t2) <= 115.56224266
 RegDown_max_RT(g1,s1,t2): RDn(g1,s1,t2) <= 36.43775734000001
 RegUp_max_RT(g1,s1,t3): RUp(g1,s1,t3) <= 115.02401327
 RegDown_max_RT(g1,s1,t3): RDn(g1,s1,t3) <= 36.97598673
 RegUp_max_RT(g1,s1,t4): RUp(g1,s1,t4) <= 113.296090505
 RegDown_max_RT(g1,s1,t4): RDn(g1,s1,t4) <= 38.70390949499999
 RegUp_max_RT(g1,s1,t5): RUp(g1,s1,t5) <= 112.7262053
 RegDown_max_RT(g1,s1,t5): RDn(g1,s1,t5) <= 39.2737947
 RegUp_max_RT(g1,s1,t6): RUp(g1,s1,t6) <= 110.797060165
 RegDown_max_RT(g1,s1,t6): RDn(g1,s1,t6) <= 41.202939835
 RegUp_max_RT(g1,s1,t7): RUp(g1,s1,t7) <= 109.445993755
 RegDown_max_RT(g1,s1,t7): RDn(g1,s1,t7) <= 42.554006245
 RegUp_max_RT(g1,s1,t8): RUp(g1,s1,t8) <= 107.18047795
 RegDown_max_RT(g1,s1,t8): RDn(g1,s1,t8) <= 44.81952205
 RegUp_max_RT(g1,s1,t9): RUp(g1,s1,t9) <= 105.52716071
 RegDown_max_RT(g1,s1,t9): RDn(g1,s1,t9) <= 46.47283929
 RegUp_max_RT(g1,s1,t10): RUp(g1,s1,t10) <= 104.276360345
 RegDown_max_RT(g1,s1,t10): RDn(g1,s1,t10) <= 47.723639655
 RegUp_max_RT(g1,s1,t11): RUp(g1,s1,t11) <= 103.97311754
 RegDown_max_RT(g1,s1,t11): RDn(g1,s1,t11) <= 48.02688246
 RegUp_max_RT(g1,s1,t12): RUp(g1,s1,t12) <= 104.70354991
 RegDown_max_RT(g1,s1,t12): RDn(g1,s1,t12) <= 47.29645009
 RegUp_max_RT(g1,s1,t13): RUp(g1,s1,t13) <= 106.09640274
 RegDown_max_RT(g1,s1,t13): RDn(g1,s1,t13) <= 45.90359726
 RegUp_max_RT(g1,s1,t14): RUp(g1,s1,t14) <= 108.547602095
 RegDown_max_RT(g1,s1,t14): RDn(g1,s1,t14) <= 43.452397905
 RegUp_max_RT(g1,s1,t15): RUp(g1,s1,t15) <= 110.471542075
 RegDown_max_RT(g1,s1,t15): RDn(g1,s1,t15) <= 41.528457925
 RegUp_max_RT(g1,s1,t16): RUp(g1,s1,t16) <= 111.32357737
 RegDown_max_RT(g1,s1,t16): RDn(g1,s1,t16) <= 40.67642263000001
 RegUp_max_RT(g1,s1,t17): RUp(g1,s1,t17) <= 111.18462076
 RegDown_max_RT(g1,s1,t17): RDn(g1,s1,t17) <= 40.81537924
 RegUp_max_RT(g1,s1,t18): RUp(g1,s1,t18) <= 111.383338415
 RegDown_max_RT(g1,s1,t18): RDn(g1,s1,t18) <= 40.616661585
 RegUp_max_RT(g1,s1,t19): RUp(g1,s1,t19) <= 111.332384765
 RegDown_max_RT(g1,s1,t19): RDn(g1,s1,t19) <= 40.667615235
 RegUp_max_RT(g1,s1,t20): RUp(g1,s1,t20) <= 110.90603063
 RegDown_max_RT(g1,s1,t20): RDn(g1,s1,t20) <= 41.09396937
 RegUp_max_RT(g1,s1,t21): RUp(g1,s1,t21) <= 109.96792372
 RegDown_max_RT(g1,s1,t21): RDn(g1,s1,t21) <= 42.03207628
 RegUp_max_RT(g1,s1,t22): RUp(g1,s1,t22) <= 108.906279835
 RegDown_max_RT(g1,s1,t22): RDn(g1,s1,t22) <= 43.093720165
 RegUp_max_RT(g1,s1,t23): RUp(g1,s1,t23) <= 107.41260091
 RegDown_max_RT(g1,s1,t23): RDn(g1,s1,t23) <= 44.58739909
 RegUp_max_RT(g1,s1,t24): RUp(g1,s1,t24) <= 105.174908645
 RegDown_max_RT(g1,s1,t24): RDn(g1,s1,t24) <= 46.825091355
 RegUp_max_RT(g1,s2,t1): RUp(g1,s2,t1) <= 116.521143
 RegDown_max_RT(g1,s2,t1): RDn(g1,s2,t1) <= 35.478857
 RegUp_max_RT(g1,s2,t2): RUp(g1,s2,t2) <= 115.56224266
 RegDown_max_RT(g1,s2,t2): RDn(g1,s2,t2) <= 36.43775734000001
 RegUp_max_RT(g1,s2,t3): RUp(g1,s2,t3) <= 115.02401327
 RegDown_max_RT(g1,s2,t3): RDn(g1,s2,t3) <= 36.97598673
 RegUp_max_RT(g1,s2,t4): RUp(g1,s2,t4) <= 113.296090505
 RegDown_max_RT(g1,s2,t4): RDn(g1,s2,t4) <= 38.70390949499999
 RegUp_max_RT(g1,s2,t5): RUp(g1,s2,t5) <= 112.7262053
 RegDown_max_RT(g1,s2,t5): RDn(g1,s2,t5) <= 39.2737947
 RegUp_max_RT(g1,s2,t6): RUp(g1,s2,t6) <= 110.797060165
 RegDown_max_RT(g1,s2,t6): RDn(g1,s2,t6) <= 41.202939835
 RegUp_max_RT(g1,s2,t7): RUp(g1,s2,t7) <= 109.445993755
 RegDown_max_RT(g1,s2,t7): RDn(g1,s2,t7) <= 42.554006245
 RegUp_max_RT(g1,s2,t8): RUp(g1,s2,t8) <= 107.18047795
 RegDown_max_RT(g1,s2,t8): RDn(g1,s2,t8) <= 44.81952205
 RegUp_max_RT(g1,s2,t9): RUp(g1,s2,t9) <= 105.52716071
 RegDown_max_RT(g1,s2,t9): RDn(g1,s2,t9) <= 46.47283929
 RegUp_max_RT(g1,s2,t10): RUp(g1,s2,t10) <= 104.276360345
 RegDown_max_RT(g1,s2,t10): RDn(g1,s2,t10) <= 47.723639655
 RegUp_max_RT(g1,s2,t11): RUp(g1,s2,t11) <= 103.97311754
 RegDown_max_RT(g1,s2,t11): RDn(g1,s2,t11) <= 48.02688246
 RegUp_max_RT(g1,s2,t12): RUp(g1,s2,t12) <= 104.70354991
 RegDown_max_RT(g1,s2,t12): RDn(g1,s2,t12) <= 47.29645009
 RegUp_max_RT(g1,s2,t13): RUp(g1,s2,t13) <= 106.09640274
 RegDown_max_RT(g1,s2,t13): RDn(g1,s2,t13) <= 45.90359726
 RegUp_max_RT(g1,s2,t14): RUp(g1,s2,t14) <= 108.547602095
 RegDown_max_RT(g1,s2,t14): RDn(g1,s2,t14) <= 43.452397905
 RegUp_max_RT(g1,s2,t15): RUp(g1,s2,t15) <= 110.471542075
 RegDown_max_RT(g1,s2,t15): RDn(g1,s2,t15) <= 41.528457925
 RegUp_max_RT(g1,s2,t16): RUp(g1,s2,t16) <= 111.32357737
 RegDown_max_RT(g1,s2,t16): RDn(g1,s2,t16) <= 40.67642263000001
 RegUp_max_RT(g1,s2,t17): RUp(g1,s2,t17) <= 111.18462076
 RegDown_max_RT(g1,s2,t17): RDn(g1,s2,t17) <= 40.81537924
 RegUp_max_RT(g1,s2,t18): RUp(g1,s2,t18) <= 111.383338415
 RegDown_max_RT(g1,s2,t18): RDn(g1,s2,t18) <= 40.616661585
 RegUp_max_RT(g1,s2,t19): RUp(g1,s2,t19) <= 111.332384765
 RegDown_max_RT(g1,s2,t19): RDn(g1,s2,t19) <= 40.667615235
 RegUp_max_RT(g1,s2,t20): RUp(g1,s2,t20) <= 110.90603063
 RegDown_max_RT(g1,s2,t20): RDn(g1,s2,t20) <= 41.09396937
 RegUp_max_RT(g1,s2,t21): RUp(g1,s2,t21) <= 109.96792372
 RegDown_max_RT(g1,s2,t21): RDn(g1,s2,t21) <= 42.03207628
 RegUp_max_RT(g1,s2,t22): RUp(g1,s2,t22) <= 108.906279835
 RegDown_max_RT(g1,s2,t22): RDn(g1,s2,t22) <= 43.093720165
 RegUp_max_RT(g1,s2,t23): RUp(g1,s2,t23) <= 107.41260091
 RegDown_max_RT(g1,s2,t23): RDn(g1,s2,t23) <= 44.58739909
 RegUp_max_RT(g1,s2,t24): RUp(g1,s2,t24) <= 105.174908645
 RegDown_max_RT(g1,s2,t24): RDn(g1,s2,t24) <= 46.825091355
 RegUpSC_max_RT(g1,s1,t1): RUpSC(g1,s1,t1) <= 0
 RegDnSC_max_RT(g1,s1,t1): RDnSC(g1,s1,t1) <= 0
 RegUpSC_max_RT(g1,s1,t2): RUpSC(g1,s1,t2) <= 0
 RegDnSC_max_RT(g1,s1,t2): RDnSC(g1,s1,t2) <= 0
 RegUpSC_max_RT(g1,s1,t3): RUpSC(g1,s1,t3) <= 0
 RegDnSC_max_RT(g1,s1,t3): RDnSC(g1,s1,t3) <= 0
 RegUpSC_max_RT(g1,s1,t4): RUpSC(g1,s1,t4) <= 0
 RegDnSC_max_RT(g1,s1,t4): RDnSC(g1,s1,t4) <= 0
 RegUpSC_max_RT(g1,s1,t5): RUpSC(g1,s1,t5) <= 0
 RegDnSC_max_RT(g1,s1,t5): RDnSC(g1,s1,t5) <= 0
 RegUpSC_max_RT(g1,s1,t6): RUpSC(g1,s1,t6) <= 0
 RegDnSC_max_RT(g1,s1,t6): RDnSC(g1,s1,t6) <= 0
 RegUpSC_max_RT(g1,s1,t7): RUpSC(g1,s1,t7) <= 0
 RegDnSC_max_RT(g1,s1,t7): RDnSC(g1,s1,t7) <= 0
 RegUpSC_max_RT(g1,s1,t8): RUpSC(g1,s1,t8) <= 0
 RegDnSC_max_RT(g1,s1,t8): RDnSC(g1,s1,t8) <= 0
 RegUpSC_max_RT(g1,s1,t9): RUpSC(g1,s1,t9) <= 0
 RegDnSC_max_RT(g1,s1,t9): RDnSC(g1,s1,t9) <= 0
 RegUpSC_max_RT(g1,s1,t10): RUpSC(g1,s1,t10) <= 0
 RegDnSC_max_RT(g1,s1,t10): RDnSC(g1,s1,t10) <= 0
 RegUpSC_max_RT(g1,s1,t11): RUpSC(g1,s1,t11) <= 0
 RegDnSC_max_RT(g1,s1,t11): RDnSC(g1,s1,t11) <= 0
 RegUpSC_max_RT(g1,s1,t12): RUpSC(g1,s1,t12) <= 0
 RegDnSC_max_RT(g1,s1,t12): RDnSC(g1,s1,t12) <= 0
 RegUpSC_max_RT(g1,s1,t13): RUpSC(g1,s1,t13) <= 0
 RegDnSC_max_RT(g1,s1,t13): RDnSC(g1,s1,t13) <= 0
 RegUpSC_max_RT(g1,s1,t14): RUpSC(g1,s1,t14) <= 0
 RegDnSC_max_RT(g1,s1,t14): RDnSC(g1,s1,t14) <= 0
 RegUpSC_max_RT(g1,s1,t15): RUpSC(g1,s1,t15) <= 0
 RegDnSC_max_RT(g1,s1,t15): RDnSC(g1,s1,t15) <= 0
 RegUpSC_max_RT(g1,s1,t16): RUpSC(g1,s1,t16) <= 0
 RegDnSC_max_RT(g1,s1,t16): RDnSC(g1,s1,t16) <= 0
 RegUpSC_max_RT(g1,s1,t17): RUpSC(g1,s1,t17) <= 0
 RegDnSC_max_RT(g1,s1,t17): RDnSC(g1,s1,t17) <= 0
 RegUpSC_max_RT(g1,s1,t18): RUpSC(g1,s1,t18) <= 0
 RegDnSC_max_RT(g1,s1,t18): RDnSC(g1,s1,t18) <= 0
 RegUpSC_max_RT(g1,s1,t19): RUpSC(g1,s1,t19) <= 0
 RegDnSC_max_RT(g1,s1,t19): RDnSC(g1,s1,t19) <= 0
 RegUpSC_max_RT(g1,s1,t20): RUpSC(g1,s1,t20) <= 0
 RegDnSC_max_RT(g1,s1,t20): RDnSC(g1,s1,t20) <= 0
 RegUpSC_max_RT(g1,s1,t21): RUpSC(g1,s1,t21) <= 0
 RegDnSC_max_RT(g1,s1,t21): RDnSC(g1,s1,t21) <= 0
 RegUpSC_max_RT(g1,s1,t22): RUpSC(g1,s1,t22) <= 0
 RegDnSC_max_RT(g1,s1,t22): RDnSC(g1,s1,t22) <= 0
 RegUpSC_max_RT(g1,s1,t23): RUpSC(g1,s1,t23) <= 0
 RegDnSC_max_RT(g1,s1,t23): RDnSC(g1,s1,t23) <= 0
 RegUpSC_max_RT(g1,s1,t24): RUpSC(g1,s1,t24) <= 0
 RegDnSC_max_RT(g1,s1,t24): RDnSC(g1,s1,t24) <= 0
 RegUpSC_max_RT(g1,s2,t1): RUpSC(g1,s2,t1) <= 0
 RegDnSC_max_RT(g1,s2,t1): RDnSC(g1,s2,t1) <= 0
 RegUpSC_max_RT(g1,s2,t2): RUpSC(g1,s2,t2) <= 0
 RegDnSC_max_RT(g1,s2,t2): RDnSC(g1,s2,t2) <= 0
 RegUpSC_max_RT(g1,s2,t3): RUpSC(g1,s2,t3) <= 0
 RegDnSC_max_RT(g1,s2,t3): RDnSC(g1,s2,t3) <= 0
 RegUpSC_max_RT(g1,s2,t4): RUpSC(g1,s2,t4) <= 0
 RegDnSC_max_RT(g1,s2,t4): RDnSC(g1,s2,t4) <= 0
 RegUpSC_max_RT(g1,s2,t5): RUpSC(g1,s2,t5) <= 0
 RegDnSC_max_RT(g1,s2,t5): RDnSC(g1,s2,t5) <= 0
 RegUpSC_max_RT(g1,s2,t6): RUpSC(g1,s2,t6) <= 0
 RegDnSC_max_RT(g1,s2,t6): RDnSC(g1,s2,t6) <= 0
 RegUpSC_max_RT(g1,s2,t7): RUpSC(g1,s2,t7) <= 0
 RegDnSC_max_RT(g1,s2,t7): RDnSC(g1,s2,t7) <= 0
 RegUpSC_max_RT(g1,s2,t8): RUpSC(g1,s2,t8) <= 0
 RegDnSC_max_RT(g1,s2,t8): RDnSC(g1,s2,t8) <= 0
 RegUpSC_max_RT(g1,s2,t9): RUpSC(g1,s2,t9) <= 0
 RegDnSC_max_RT(g1,s2,t9): RDnSC(g1,s2,t9) <= 0
 RegUpSC_max_RT(g1,s2,t10): RUpSC(g1,s2,t10) <= 0
 RegDnSC_max_RT(g1,s2,t10): RDnSC(g1,s2,t10) <= 0
 RegUpSC_max_RT(g1,s2,t11): RUpSC(g1,s2,t11) <= 0
 RegDnSC_max_RT(g1,s2,t11): RDnSC(g1,s2,t11) <= 0
 RegUpSC_max_RT(g1,s2,t12): RUpSC(g1,s2,t12) <= 0
 RegDnSC_max_RT(g1,s2,t12): RDnSC(g1,s2,t12) <= 0
 RegUpSC_max_RT(g1,s2,t13): RUpSC(g1,s2,t13) <= 0
 RegDnSC_max_RT(g1,s2,t13): RDnSC(g1,s2,t13) <= 0
 RegUpSC_max_RT(g1,s2,t14): RUpSC(g1,s2,t14) <= 0
 RegDnSC_max_RT(g1,s2,t14): RDnSC(g1,s2,t14) <= 0
 RegUpSC_max_RT(g1,s2,t15): RUpSC(g1,s2,t15) <= 0
 RegDnSC_max_RT(g1,s2,t15): RDnSC(g1,s2,t15) <= 0
 RegUpSC_max_RT(g1,s2,t16): RUpSC(g1,s2,t16) <= 0
 RegDnSC_max_RT(g1,s2,t16): RDnSC(g1,s2,t16) <= 0
 RegUpSC_max_RT(g1,s2,t17): RUpSC(g1,s2,t17) <= 0
 RegDnSC_max_RT(g1,s2,t17): RDnSC(g1,s2,t17) <= 0
 RegUpSC_max_RT(g1,s2,t18): RUpSC(g1,s2,t18) <= 0
 RegDnSC_max_RT(g1,s2,t18): RDnSC(g1,s2,t18) <= 0
 RegUpSC_max_RT(g1,s2,t19): RUpSC(g1,s2,t19) <= 0
 RegDnSC_max_RT(g1,s2,t19): RDnSC(g1,s2,t19) <= 0
 RegUpSC_max_RT(g1,s2,t20): RUpSC(g1,s2,t20) <= 0
 RegDnSC_max_RT(g1,s2,t20): RDnSC(g1,s2,t20) <= 0
 RegUpSC_max_RT(g1,s2,t21): RUpSC(g1,s2,t21) <= 0
 RegDnSC_max_RT(g1,s2,t21): RDnSC(g1,s2,t21) <= 0
 RegUpSC_max_RT(g1,s2,t22): RUpSC(g1,s2,t22) <= 0
 RegDnSC_max_RT(g1,s2,t22): RDnSC(g1,s2,t22) <= 0
 RegUpSC_max_RT(g1,s2,t23): RUpSC(g1,s2,t23) <= 0
 RegDnSC_max_RT(g1,s2,t23): RDnSC(g1,s2,t23) <= 0
 RegUpSC_max_RT(g1,s2,t24): RUpSC(g1,s2,t24) <= 0
 RegDnSC_max_RT(g1,s2,t24): RDnSC(g1,s2,t24) <= 0
 Max_load_shed_RT(s1,t1): Lshed(s1,t1) <= 50
 Max_load_shed_RT(s1,t2): Lshed(s1,t2) <= 51.29409523
 Max_load_shed_RT(s1,t3): Lshed(s1,t3) <= 52.5
 Max_load_shed_RT(s1,t4): Lshed(s1,t4) <= 53.53553391
 Max_load_shed_RT(s1,t5): Lshed(s1,t5) <= 54.33012702
 Max_load_shed_RT(s1,t6): Lshed(s1,t6) <= 54.82962913
 Max_load_shed_RT(s1,t7): Lshed(s1,t7) <= 55
 Max_load_shed_RT(s1,t8): Lshed(s1,t8) <= 54.82962913
 Max_load_shed_RT(s1,t9): Lshed(s1,t9) <= 54.33012702
 Max_load_shed_RT(s1,t10): Lshed(s1,t10) <= 53.53553391
 Max_load_shed_RT(s1,t11): Lshed(s1,t11) <= 52.5
 Max_load_shed_RT(s1,t12): Lshed(s1,t12) <= 51.29409523
 Max_load_shed_RT(s1,t13): Lshed(s1,t13) <= 50
 Max_load_shed_RT(s1,t14): Lshed(s1,t14) <= 48.70590477
 Max_load_shed_RT(s1,t15): Lshed(s1,t15) <= 47.5
 Max_load_shed_RT(s1,t16): Lshed(s1,t16) <= 46.46446609
 Max_load_shed_RT(s1,t17): Lshed(s1,t17) <= 45.66987298
 Max_load_shed_RT(s1,t18): Lshed(s1,t18) <= 45.17037087
 Max_load_shed_RT(s1,t19): Lshed(s1,t19) <= 45
 Max_load_shed_RT(s1,t20): Lshed(s1,t20) <= 45.17037087
 Max_load_shed_RT(s1,t21): Lshed(s1,t21) <= 45.66987298
 Max_load_shed_RT(s1,t22): Lshed(s1,t22) <= 46.46446609
 Max_load_shed_RT(s1,t23): Lshed(s1,t23) <= 47.5
 Max_load_shed_RT(s1,t24): Lshed(s1,t24) <= 48.70590477
 Max_load_shed_RT(s2,t1): Lshed(s2,t1) <= 50
 Max_load_shed_RT(s2,t2): Lshed(s2,t2) <= 51.29409523
 Max_load_shed_RT(s2,t3): Lshed(s2,t3) <= 52.5
 Max_load_shed_RT(s2,t4): Lshed(s2,t4) <= 53.53553391
 Max_load_shed_RT(s2,t5): Lshed(s2,t5) <= 54.33012702
 Max_load_shed_RT(s2,t6): Lshed(s2,t6) <= 54.82962913
 Max_load_shed_RT(s2,t7): Lshed(s2,t7) <= 55
 Max_load_shed_RT(s2,t8): Lshed(s2,t8) <= 54.82962913
 Max_load_shed_RT(s2,t9): Lshed(s2,t9) <= 54.33012702
 Max_load_shed_RT(s2,t10): Lshed(s2,t10) <= 53.53553391
 Max_load_shed_RT(s2,t11): Lshed(s2,t11) <= 52.5
 Max_load_shed_RT(s2,t12): Lshed(s2,t12) <= 51.29409523
 Max_load_shed_RT(s2,t13): Lshed(s2,t13) <= 50
 Max_load_shed_RT(s2,t14): Lshed(s2,t14) <= 48.70590477
 Max_load_shed_RT(s2,t15): Lshed(s2,t15) <= 47.5
 Max_load_shed_RT(s2,t16): Lshed(s2,t16) <= 46.46446609
 Max_load_shed_RT(s2,t17): Lshed(s2,t17) <= 45.66987298
 Max_load_shed_RT(s2,t18): Lshed(s2,t18) <= 45.17037087
 Max_load_shed_RT(s2,t19): Lshed(s2,t19) <= 45
 Max_load_shed_RT(s2,t20): Lshed(s2,t20) <= 45.17037087
 Max_load_shed_RT(s2,t21): Lshed(s2,t21) <= 45.66987298
 Max_load_shed_RT(s2,t22): Lshed(s2,t22) <= 46.46446609
 Max_load_shed_RT(s2,t23): Lshed(s2,t23) <= 47.5
 Max_load_shed_RT(s2,t24): Lshed(s2,t24) <= 48.70590477
 Max_wind_spill_RT(w1,s1,t1): Wspill(w1,s1,t1) <= 19.36152399
 Max_wind_spill_RT(w1,s1,t2): Wspill(w1,s1,t2) <= 19.80845052
 Max_wind_spill_RT(w1,s1,t3): Wspill(w1,s1,t3) <= 20.69868435
 Max_wind_spill_RT(w1,s1,t4): Wspill(w1,s1,t4) <= 19.77549921
 Max_wind_spill_RT(w1,s1,t5): Wspill(w1,s1,t5) <= 20.07510975
 Max_wind_spill_RT(w1,s1,t6): Wspill(w1,s1,t6) <= 18.16891905
 Max_wind_spill_RT(w1,s1,t7): Wspill(w1,s1,t7) <= 16.59465834
 Max_wind_spill_RT(w1,s1,t8): Wspill(w1,s1,t8) <= 13.34680944
 Max_wind_spill_RT(w1,s1,t9): Wspill(w1,s1,t9) <= 10.47638364
 Max_wind_spill_RT(w1,s1,t10): Wspill(w1,s1,t10) <= 7.749192330000001
 Max_wind_spill_RT(w1,s1,t11): Wspill(w1,s1,t11) <= 5.964156719999999
 Max_wind_spill_RT(w1,s1,t12): Wspill(w1,s1,t12) <= 5.33019351
 Max_wind_spill_RT(w1,s1,t13): Wspill(w1,s1,t13) <= 5.461870319999999
 Max_wind_spill_RT(w1,s1,t14): Wspill(w1,s1,t14) <= 7.004675819999999
 Max_wind_spill_RT(w1,s1,t15): Wspill(w1,s1,t15) <= 7.9620561
 Max_wind_spill_RT(w1,s1,t16): Wspill(w1,s1,t16) <= 7.71739128
 Max_wind_spill_RT(w1,s1,t17): Wspill(w1,s1,t17) <= 6.47265831
 Max_wind_spill_RT(w1,s1,t18): Wspill(w1,s1,t18) <= 6.07161237
 Max_wind_spill_RT(w1,s1,t19): Wspill(w1,s1,t19) <= 5.776513019999999
 Max_wind_spill_RT(w1,s1,t20): Wspill(w1,s1,t20) <= 5.435201999999999
 Max_wind_spill_RT(w1,s1,t21): Wspill(w1,s1,t21) <= 4.850395590000001
 Max_wind_spill_RT(w1,s1,t22): Wspill(w1,s1,t22) <= 4.4943279
 Max_wind_spill_RT(w1,s1,t23): Wspill(w1,s1,t23) <= 3.88346787
 Max_wind_spill_RT(w1,s1,t24): Wspill(w1,s1,t24) <= 2.50775121
 Max_wind_spill_RT(w1,s2,t1): Wspill(w1,s2,t1) <= 9.680762009999999
 Max_wind_spill_RT(w1,s2,t2): Wspill(w1,s2,t2) <= 9.904225260000001
 Max_wind_spill_RT(w1,s2,t3): Wspill(w1,s2,t3) <= 10.34934219
 Max_wind_spill_RT(w1,s2,t4): Wspill(w1,s2,t4) <= 9.887749620000001
 Max_wind_spill_RT(w1,s2,t5): Wspill(w1,s2,t5) <= 10.03755489
 Max_wind_spill_RT(w1,s2,t6): Wspill(w1,s2,t6) <= 9.084459539999999
 Max_wind_spill_RT(w1,s2,t7): Wspill(w1,s2,t7) <= 8.297329169999999
 Max_wind_spill_RT(w1,s2,t8): Wspill(w1,s2,t8) <= 6.67340472
 Max_wind_spill_RT(w1,s2,t9): Wspill(w1,s2,t9) <= 5.23819182
 Max_wind_spill_RT(w1,s2,t10): Wspill(w1,s2,t10) <= 3.87459618
 Max_wind_spill_RT(w1,s2,t11): Wspill(w1,s2,t11) <= 2.98207836
 Max_wind_spill_RT(w1,s2,t12): Wspill(w1,s2,t12) <= 2.66509677
 Max_wind_spill_RT(w1,s2,t13): Wspill(w1,s2,t13) <= 2.73093516
 Max_wind_spill_RT(w1,s2,t14): Wspill(w1,s2,t14) <= 3.50233791
 Max_wind_spill_RT(w1,s2,t15): Wspill(w1,s2,t15) <= 3.98102805
 Max_wind_spill_RT(w1,s2,t16): Wspill(w1,s2,t16) <= 3.85869564
 Max_wind_spill_RT(w1,s2,t17): Wspill(w1,s2,t17) <= 3.23632917
 Max_wind_spill_RT(w1,s2,t18): Wspill(w1,s2,t18) <= 3.0358062
 Max_wind_spill_RT(w1,s2,t19): Wspill(w1,s2,t19) <= 2.88825651
 Max_wind_spill_RT(w1,s2,t20): Wspill(w1,s2,t20) <= 2.717601
 Max_wind_spill_RT(w1,s2,t21): Wspill(w1,s2,t21) <= 2.42519781
 Max_wind_spill_RT(w1,s2,t22): Wspill(w1,s2,t22) <= 2.24716395
 Max_wind_spill_RT(w1,s2,t23): Wspill(w1,s2,t23) <= 1.94173395
 Max_wind_spill_RT(w1,s2,t24): Wspill(w1,s2,t24) <= 1.25387562
Bounds
End
